
Gurobi 8.1.1 (win64) logging started 11/23/19 16:02:49

Changed value of parameter LogFile to logs/full/feas/full-05-15-0.log
   Prev: gurobi.log  Default: 
Changed value of parameter LogToConsole to 0
   Prev: 1  Min: 0  Max: 1  Default: 1
Changed value of parameter TimeLimit to 3600.0
   Prev: 1e+100  Min: 0.0  Max: 1e+100  Default: 1e+100
Optimize a model with 802 rows, 369 columns and 2952 nonzeros
Variable types: 0 continuous, 369 integer (360 binary)
Coefficient statistics:
  Matrix range     [1e+00, 1e+02]
  Objective range  [1e+00, 1e+00]
  Bounds range     [1e+00, 1e+00]
  RHS range        [1e+00, 1e+02]
Presolve time: 0.02s
Presolved: 802 rows, 369 columns, 2952 nonzeros
Variable types: 0 continuous, 369 integer (360 binary)

Root relaxation: objective 3.600000e+01, 71 iterations, 0.00 seconds

    Nodes    |    Current Node    |     Objective Bounds      |     Work
 Expl Unexpl |  Obj  Depth IntInf | Incumbent    BestBd   Gap | It/Node Time

     0     0   36.00000    0   35          -   36.00000      -     -    0s
     0     0   36.00000    0   53          -   36.00000      -     -    0s
     0     0   36.00000    0   30          -   36.00000      -     -    0s
     0     0   36.00000    0   34          -   36.00000      -     -    0s
     0     0   36.00000    0   33          -   36.00000      -     -    0s
H    0     0                      78.0000000   36.00000  53.8%     -    0s
     0     0   36.00000    0   33   78.00000   36.00000  53.8%     -    0s
     0     0   36.72337    0   46   78.00000   36.72337  52.9%     -    0s
H    0     0                      77.0000000   36.72337  52.3%     -    0s
     0     0   37.45546    0   43   77.00000   37.45546  51.4%     -    0s
     0     0   37.45546    0   43   77.00000   37.45546  51.4%     -    0s
     0     0   44.14864    0   32   77.00000   44.14864  42.7%     -    0s
     0     0   44.14864    0   32   77.00000   44.14864  42.7%     -    0s
     0     0   44.97222    0   23   77.00000   44.97222  41.6%     -    0s
H    0     0                      62.0000000   44.97222  27.5%     -    0s
     0     0   45.19069    0   25   62.00000   45.19069  27.1%     -    0s
     0     0   45.19069    0   25   62.00000   45.19069  27.1%     -    0s
     0     0   45.27273    0   19   62.00000   45.27273  27.0%     -    0s
     0     0   45.27273    0   18   62.00000   45.27273  27.0%     -    0s
     0     0   46.00000    0   14   62.00000   46.00000  25.8%     -    0s
     0     0   46.00000    0   14   62.00000   46.00000  25.8%     -    0s
     0     0   52.85764    0   33   62.00000   52.85764  14.7%     -    0s
     0     0   52.93544    0   35   62.00000   52.93544  14.6%     -    0s
     0     0   52.98327    0   34   62.00000   52.98327  14.5%     -    0s
     0     0   52.98327    0   37   62.00000   52.98327  14.5%     -    0s
     0     0   53.00577    0   33   62.00000   53.00577  14.5%     -    0s
     0     0   53.00577    0   34   62.00000   53.00577  14.5%     -    0s
     0     0   53.00577    0   46   62.00000   53.00577  14.5%     -    0s
     0     0   53.16024    0   38   62.00000   53.16024  14.3%     -    0s
     0     0   53.21084    0   36   62.00000   53.21084  14.2%     -    0s
     0     0   53.30705    0   33   62.00000   53.30705  14.0%     -    0s
     0     0   53.31941    0   31   62.00000   53.31941  14.0%     -    0s
     0     0   53.32934    0   32   62.00000   53.32934  14.0%     -    0s
     0     0   54.22832    0   38   62.00000   54.22832  12.5%     -    0s
     0     0   54.26948    0   38   62.00000   54.26948  12.5%     -    0s
     0     0   54.30497    0   37   62.00000   54.30497  12.4%     -    0s
     0     0   54.37294    0   36   62.00000   54.37294  12.3%     -    0s
     0     0   54.54450    0   37   62.00000   54.54450  12.0%     -    0s
     0     0   54.54450    0   38   62.00000   54.54450  12.0%     -    0s
     0     0   54.63687    0   37   62.00000   54.63687  11.9%     -    0s
     0     0   54.63972    0   37   62.00000   54.63972  11.9%     -    0s
     0     0   55.27120    0   34   62.00000   55.27120  10.9%     -    0s
     0     0   55.29483    0   35   62.00000   55.29483  10.8%     -    0s
     0     0   55.29483    0   35   62.00000   55.29483  10.8%     -    0s
     0     0   55.30333    0   36   62.00000   55.30333  10.8%     -    0s
     0     0   55.34449    0   37   62.00000   55.34449  10.7%     -    0s
     0     0   55.39355    0   40   62.00000   55.39355  10.7%     -    0s
     0     0   55.48340    0   39   62.00000   55.48340  10.5%     -    0s
     0     0   55.48340    0   39   62.00000   55.48340  10.5%     -    0s
     0     0   55.57776    0   40   62.00000   55.57776  10.4%     -    0s
     0     0   55.59787    0   41   62.00000   55.59787  10.3%     -    0s
     0     0   55.86493    0   31   62.00000   55.86493  9.90%     -    0s
     0     0   55.91682    0   33   62.00000   55.91682  9.81%     -    0s
     0     0   55.93213    0   33   62.00000   55.93213  9.79%     -    0s
     0     0   55.93213    0   37   62.00000   55.93213  9.79%     -    0s
     0     0   55.93606    0   35   62.00000   55.93606  9.78%     -    0s
     0     0   55.93606    0   37   62.00000   55.93606  9.78%     -    0s
     0     0   55.96639    0   32   62.00000   55.96639  9.73%     -    0s
     0     0   56.10740    0   26   62.00000   56.10740  9.50%     -    0s
     0     0   56.50000    0   19   62.00000   56.50000  8.87%     -    0s
     0     0   56.50000    0   12   62.00000   56.50000  8.87%     -    0s
     0     0   56.50000    0   10   62.00000   56.50000  8.87%     -    0s
     0     0   56.50000    0   10   62.00000   56.50000  8.87%     -    0s
     0     0   56.50000    0   10   62.00000   56.50000  8.87%     -    0s

Explored 1 nodes (2909 simplex iterations) in 0.75 seconds
Thread count was 4 (of 4 available processors)

Solution count 4: 62 69 77 78 

Optimal solution found (tolerance 1.00e-04)
Best objective 6.200000000000e+01, best bound 6.200000000000e+01, gap 0.0000%

Gurobi 8.1.1 (win64) logging started 11/23/19 16:02:49

Changed value of parameter LogFile to logs/full/feas/full-05-15-0.log
   Prev: gurobi.log  Default: 
Changed value of parameter LogToConsole to 0
   Prev: 1  Min: 0  Max: 1  Default: 1
Changed value of parameter TimeLimit to 3600.0
   Prev: 1e+100  Min: 0.0  Max: 1e+100  Default: 1e+100
Optimize a model with 472 rows, 217 columns and 1722 nonzeros
Variable types: 0 continuous, 217 integer (210 binary)
Coefficient statistics:
  Matrix range     [1e+00, 1e+02]
  Objective range  [1e+00, 1e+00]
  Bounds range     [1e+00, 1e+00]
  RHS range        [1e+00, 1e+02]
Presolve time: 0.01s
Presolved: 472 rows, 217 columns, 1722 nonzeros
Variable types: 0 continuous, 217 integer (210 binary)

Root relaxation: objective 2.100000e+01, 69 iterations, 0.00 seconds

    Nodes    |    Current Node    |     Objective Bounds      |     Work
 Expl Unexpl |  Obj  Depth IntInf | Incumbent    BestBd   Gap | It/Node Time

     0     0   21.00000    0   47          -   21.00000      -     -    0s
     0     0   21.00000    0   54          -   21.00000      -     -    0s
H    0     0                      59.0000000   21.00000  64.4%     -    0s
     0     0   23.83351    0   39   59.00000   23.83351  59.6%     -    0s
     0     0   25.18089    0   34   59.00000   25.18089  57.3%     -    0s
     0     0   25.18089    0   35   59.00000   25.18089  57.3%     -    0s
     0     0   27.75283    0   30   59.00000   27.75283  53.0%     -    0s
     0     0   31.17546    0   49   59.00000   31.17546  47.2%     -    0s
     0     0   31.17546    0   49   59.00000   31.17546  47.2%     -    0s
     0     0   31.40289    0   49   59.00000   31.40289  46.8%     -    0s
     0     0   31.55689    0   50   59.00000   31.55689  46.5%     -    0s
     0     0   31.57246    0   51   59.00000   31.57246  46.5%     -    0s
     0     0   31.82039    0   48   59.00000   31.82039  46.1%     -    0s
     0     0   31.82039    0   48   59.00000   31.82039  46.1%     -    0s
     0     0   32.11364    0   52   59.00000   32.11364  45.6%     -    0s
     0     0   32.11944    0   51   59.00000   32.11944  45.6%     -    0s
     0     0   32.12504    0   51   59.00000   32.12504  45.6%     -    0s
     0     0   32.36805    0   46   59.00000   32.36805  45.1%     -    0s
     0     0   32.37110    0   49   59.00000   32.37110  45.1%     -    0s
     0     0   33.12293    0   51   59.00000   33.12293  43.9%     -    0s
     0     0   33.43222    0   51   59.00000   33.43222  43.3%     -    0s
     0     0   33.50412    0   50   59.00000   33.50412  43.2%     -    0s
     0     0   33.53956    0   52   59.00000   33.53956  43.2%     -    0s
     0     0   33.53956    0   51   59.00000   33.53956  43.2%     -    0s
     0     0   33.56468    0   73   59.00000   33.56468  43.1%     -    0s
     0     0   33.60336    0   67   59.00000   33.60336  43.0%     -    0s
     0     0   33.60336    0   67   59.00000   33.60336  43.0%     -    0s
     0     0   33.60543    0   48   59.00000   33.60543  43.0%     -    0s
     0     0   33.60738    0   49   59.00000   33.60738  43.0%     -    0s
     0     0   33.61023    0   49   59.00000   33.61023  43.0%     -    0s
     0     0   33.61023    0   47   59.00000   33.61023  43.0%     -    0s
     0     0   33.61023    0   38   59.00000   33.61023  43.0%     -    0s
     0     0   33.61023    0   29   59.00000   33.61023  43.0%     -    0s
     0     0   33.61023    0   42   59.00000   33.61023  43.0%     -    0s
     0     0   33.61023    0   38   59.00000   33.61023  43.0%     -    0s
     0     0   33.91807    0   39   59.00000   33.91807  42.5%     -    0s
     0     0   33.98740    0   59   59.00000   33.98740  42.4%     -    0s
     0     0   33.98830    0   59   59.00000   33.98830  42.4%     -    0s
     0     0   34.90356    0   38   59.00000   34.90356  40.8%     -    0s
     0     0   34.94642    0   39   59.00000   34.94642  40.8%     -    0s
     0     0   34.96605    0   40   59.00000   34.96605  40.7%     -    0s
     0     0   41.46820    0   25   59.00000   41.46820  29.7%     -    0s
H    0     0                      57.0000000   41.46820  27.2%     -    0s
H    0     0                      55.0000000   41.46820  24.6%     -    0s
     0     0   42.24097    0   60   55.00000   42.24097  23.2%     -    0s
     0     0   42.28905    0   56   55.00000   42.28905  23.1%     -    0s
     0     0   42.29980    0   59   55.00000   42.29980  23.1%     -    0s
     0     0   42.29980    0   59   55.00000   42.29980  23.1%     -    0s
     0     0   42.90133    0   54   55.00000   42.90133  22.0%     -    0s
     0     0   43.00758    0   52   55.00000   43.00758  21.8%     -    0s
     0     0   43.05455    0   54   55.00000   43.05455  21.7%     -    0s
     0     0   43.05455    0   54   55.00000   43.05455  21.7%     -    0s
     0     0   43.15647    0   52   55.00000   43.15647  21.5%     -    0s
     0     0   43.17291    0   54   55.00000   43.17291  21.5%     -    0s
     0     0   43.17603    0   55   55.00000   43.17603  21.5%     -    0s
     0     0   43.37762    0   28   55.00000   43.37762  21.1%     -    0s
     0     0   43.49442    0   55   55.00000   43.49442  20.9%     -    0s
     0     0   43.50435    0   56   55.00000   43.50435  20.9%     -    0s
     0     0   43.56884    0   26   55.00000   43.56884  20.8%     -    0s
     0     0   43.68463    0   52   55.00000   43.68463  20.6%     -    0s
     0     0   43.76330    0   52   55.00000   43.76330  20.4%     -    0s
     0     0   43.76330    0   53   55.00000   43.76330  20.4%     -    0s
     0     0   44.05996    0   50   55.00000   44.05996  19.9%     -    0s
     0     0   44.07536    0   51   55.00000   44.07536  19.9%     -    0s
     0     0   44.08902    0   54   55.00000   44.08902  19.8%     -    0s
     0     0   44.08902    0   56   55.00000   44.08902  19.8%     -    0s
     0     0   44.41207    0   50   55.00000   44.41207  19.3%     -    0s
     0     0   44.60171    0   48   55.00000   44.60171  18.9%     -    0s
     0     0   44.60891    0   49   55.00000   44.60891  18.9%     -    0s
     0     0   44.85624    0   44   55.00000   44.85624  18.4%     -    0s
     0     0   44.91504    0   45   55.00000   44.91504  18.3%     -    0s
     0     0   44.94524    0   49   55.00000   44.94524  18.3%     -    0s
     0     0   44.94535    0   51   55.00000   44.94535  18.3%     -    0s
     0     0   44.98786    0   50   55.00000   44.98786  18.2%     -    0s
     0     0   44.98786    0   48   55.00000   44.98786  18.2%     -    0s
     0     0   44.98786    0   29   55.00000   44.98786  18.2%     -    0s
     0     0   44.98786    0   30   55.00000   44.98786  18.2%     -    0s
     0     0   44.98786    0   37   55.00000   44.98786  18.2%     -    0s
     0     0   45.42462    0   39   55.00000   45.42462  17.4%     -    0s
     0     0   45.42462    0   40   55.00000   45.42462  17.4%     -    0s
     0     0   45.51708    0   41   55.00000   45.51708  17.2%     -    0s
     0     0   45.63626    0   41   55.00000   45.63626  17.0%     -    0s
     0     0   46.03235    0   38   55.00000   46.03235  16.3%     -    0s
     0     0   46.06438    0   39   55.00000   46.06438  16.2%     -    0s
     0     0   46.09267    0   40   55.00000   46.09267  16.2%     -    0s
     0     0   46.18285    0   38   55.00000   46.18285  16.0%     -    0s
     0     0   46.19163    0   40   55.00000   46.19163  16.0%     -    0s
     0     0   46.20622    0   40   55.00000   46.20622  16.0%     -    0s
     0     0   46.20627    0   41   55.00000   46.20627  16.0%     -    0s
     0     0   46.23090    0   40   55.00000   46.23090  15.9%     -    0s
     0     0   46.27259    0   41   55.00000   46.27259  15.9%     -    0s
     0     0   46.32769    0   41   55.00000   46.32769  15.8%     -    0s
     0     0   46.35131    0   39   55.00000   46.35131  15.7%     -    0s
     0     0   46.35915    0   40   55.00000   46.35915  15.7%     -    0s
     0     0   46.37772    0   39   55.00000   46.37772  15.7%     -    0s
     0     0   46.38165    0   40   55.00000   46.38165  15.7%     -    0s
     0     0   46.38204    0   41   55.00000   46.38204  15.7%     -    0s
     0     0   46.39663    0   40   55.00000   46.39663  15.6%     -    0s
     0     0   46.40389    0   42   55.00000   46.40389  15.6%     -    0s
     0     0   46.41066    0   43   55.00000   46.41066  15.6%     -    0s
     0     0   46.41068    0   42   55.00000   46.41068  15.6%     -    0s
     0     0   46.41492    0   41   55.00000   46.41492  15.6%     -    0s
     0     0   46.41492    0   41   55.00000   46.41492  15.6%     -    0s
     0     2   46.41492    0   41   55.00000   46.41492  15.6%     -    0s

Cutting planes:
  Cover: 1
  Implied bound: 8
  Clique: 1
  MIR: 30

Explored 31 nodes (2915 simplex iterations) in 0.50 seconds
Thread count was 4 (of 4 available processors)

Solution count 3: 55 57 59 

Optimal solution found (tolerance 1.00e-04)
Best objective 5.500000000000e+01, best bound 5.500000000000e+01, gap 0.0000%

Gurobi 8.1.1 (win64) logging started 11/23/19 16:02:50

Changed value of parameter LogFile to logs/full/feas/full-05-15-0.log
   Prev: gurobi.log  Default: 
Changed value of parameter LogToConsole to 0
   Prev: 1  Min: 0  Max: 1  Default: 1
Changed value of parameter TimeLimit to 3600.0
   Prev: 1e+100  Min: 0.0  Max: 1e+100  Default: 1e+100
Optimize a model with 340 rows, 156 columns and 1230 nonzeros
Variable types: 0 continuous, 156 integer (150 binary)
Coefficient statistics:
  Matrix range     [1e+00, 1e+02]
  Objective range  [1e+00, 1e+00]
  Bounds range     [1e+00, 1e+00]
  RHS range        [1e+00, 1e+02]
Presolve time: 0.01s
Presolved: 340 rows, 156 columns, 1230 nonzeros
Variable types: 0 continuous, 156 integer (150 binary)

Root relaxation: objective 1.500000e+01, 71 iterations, 0.00 seconds

    Nodes    |    Current Node    |     Objective Bounds      |     Work
 Expl Unexpl |  Obj  Depth IntInf | Incumbent    BestBd   Gap | It/Node Time

     0     0   15.00000    0   61          -   15.00000      -     -    0s
H    0     0                      60.0000000   15.00000  75.0%     -    0s
     0     0   17.53479    0   50   60.00000   17.53479  70.8%     -    0s
     0     0   17.53479    0   49   60.00000   17.53479  70.8%     -    0s
     0     0   22.92343    0   60   60.00000   22.92343  61.8%     -    0s
H    0     0                      53.0000000   22.92343  56.7%     -    0s
     0     0   22.94518    0   59   53.00000   22.94518  56.7%     -    0s
     0     0   23.33908    0   77   53.00000   23.33908  56.0%     -    0s
     0     0   23.38081    0   52   53.00000   23.38081  55.9%     -    0s
     0     0   24.55290    0   51   53.00000   24.55290  53.7%     -    0s
     0     0   27.19259    0   70   53.00000   27.19259  48.7%     -    0s
     0     0   27.21357    0   68   53.00000   27.21357  48.7%     -    0s
     0     0   27.22258    0   68   53.00000   27.22258  48.6%     -    0s
     0     0   27.22627    0   69   53.00000   27.22627  48.6%     -    0s
     0     0   27.24449    0   67   53.00000   27.24449  48.6%     -    0s
     0     0   27.24449    0   65   53.00000   27.24449  48.6%     -    0s
     0     0   27.24449    0   38   53.00000   27.24449  48.6%     -    0s
     0     0   27.24449    0   34   53.00000   27.24449  48.6%     -    0s
     0     0   35.95992    0   35   53.00000   35.95992  32.2%     -    0s
     0     0   36.19039    0   44   53.00000   36.19039  31.7%     -    0s
     0     0   36.38954    0   35   53.00000   36.38954  31.3%     -    0s
     0     0   36.67310    0   47   53.00000   36.67310  30.8%     -    0s
     0     0   36.80000    0   53   53.00000   36.80000  30.6%     -    0s
     0     0   36.80000    0   54   53.00000   36.80000  30.6%     -    0s
     0     0   37.21699    0   52   53.00000   37.21699  29.8%     -    0s
     0     0   37.21699    0   53   53.00000   37.21699  29.8%     -    0s
     0     0   37.52736    0   52   53.00000   37.52736  29.2%     -    0s
     0     0   37.58543    0   51   53.00000   37.58543  29.1%     -    0s
     0     0   37.68245    0   61   53.00000   37.68245  28.9%     -    0s
     0     0   38.18638    0   59   53.00000   38.18638  28.0%     -    0s
     0     0   38.20421    0   55   53.00000   38.20421  27.9%     -    0s
     0     0   38.56920    0   56   53.00000   38.56920  27.2%     -    0s
     0     0   38.78040    0   55   53.00000   38.78040  26.8%     -    0s
     0     0   38.78083    0   57   53.00000   38.78083  26.8%     -    0s
     0     0   39.30930    0   61   53.00000   39.30930  25.8%     -    0s
     0     0   39.47548    0   64   53.00000   39.47548  25.5%     -    0s
     0     0   39.48436    0   65   53.00000   39.48436  25.5%     -    0s
     0     0   39.69825    0   61   53.00000   39.69825  25.1%     -    0s
     0     0   39.77482    0   61   53.00000   39.77482  25.0%     -    0s
     0     0   39.80785    0   62   53.00000   39.80785  24.9%     -    0s
     0     0   39.86317    0   61   53.00000   39.86317  24.8%     -    0s
     0     0   39.87184    0   63   53.00000   39.87184  24.8%     -    0s
     0     0   40.06015    0   59   53.00000   40.06015  24.4%     -    0s
     0     0   40.12066    0   56   53.00000   40.12066  24.3%     -    0s
     0     0   40.12940    0   60   53.00000   40.12940  24.3%     -    0s
     0     0   40.42125    0   53   53.00000   40.42125  23.7%     -    0s
     0     0   40.60999    0   54   53.00000   40.60999  23.4%     -    0s
     0     0   40.62881    0   58   53.00000   40.62881  23.3%     -    0s
     0     0   40.63767    0   63   53.00000   40.63767  23.3%     -    0s
     0     0   40.77277    0   60   53.00000   40.77277  23.1%     -    0s
     0     0   40.77452    0   62   53.00000   40.77452  23.1%     -    0s
     0     0   40.92984    0   64   53.00000   40.92984  22.8%     -    0s
     0     0   40.99391    0   49   53.00000   40.99391  22.7%     -    0s
     0     0   40.99391    0   49   53.00000   40.99391  22.7%     -    0s
     0     2   40.99391    0   49   53.00000   40.99391  22.7%     -    0s

Cutting planes:
  Gomory: 4
  Implied bound: 9
  MIR: 64

Explored 345 nodes (5199 simplex iterations) in 0.47 seconds
Thread count was 4 (of 4 available processors)

Solution count 2: 53 60 

Optimal solution found (tolerance 1.00e-04)
Best objective 5.300000000000e+01, best bound 5.300000000000e+01, gap 0.0000%
